; benchmark generated from python API
(set-info :status unknown)
(declare-fun R_B1_V4 () Bool)
(declare-fun R_B1_V5 () Bool)
(declare-fun W_S2_V5 () Bool)
(declare-fun R_B1_V2 () Bool)
(declare-fun W_S2_V2 () Bool)
(declare-fun W_S2_V3 () Bool)
(declare-fun W_S2_V1 () Bool)
(declare-fun W_S1_V4 () Bool)
(declare-fun W_S1_V5 () Bool)
(declare-fun W_S1_V2 () Bool)
(declare-fun W_S1_V1 () Bool)
(declare-fun R_S1_V4 () Bool)
(declare-fun R_S1_V5 () Bool)
(declare-fun R_S1_V2 () Bool)
(declare-fun R_S1_V3 () Bool)
(declare-fun R_S1_V1 () Bool)
(declare-fun R_B1_V3 () Bool)
(declare-fun R_S2_V4 () Bool)
(declare-fun R_S2_V5 () Bool)
(declare-fun R_S2_V2 () Bool)
(declare-fun R_S2_V3 () Bool)
(declare-fun R_S2_V1 () Bool)
(declare-fun DISJ_W_S2_R_S2 () Bool)
(declare-fun DISJ_W_S2_R_S1 () Bool)
(declare-fun DISJ_W_S1_W_S2 () Bool)
(declare-fun DISJ_W_S1_R_B1 () Bool)
(declare-fun DISJ_W_S1_R_S2 () Bool)
(declare-fun DISJ_W_S1_R_S1 () Bool)
(declare-fun W_S2_V4 () Bool)
(declare-fun W_S1_V3 () Bool)
(declare-fun R_B1_V1 () Bool)
(declare-fun DISJ_W_S2_R_B1 () Bool)
(assert
 (let (($x5098 (not R_B1_V4)))
 (let (($x1966 (not (and W_S2_V5 R_B1_V5))))
 (let (($x4166 (not (and W_S2_V2 R_B1_V2))))
 (let (($x2039 (forall ((V1_0 Int) )(forall ((V3_0 Int) )(forall ((V2_0 Int) )(forall ((V5_0 Int) )(forall ((V4_0 Int) )(forall ((MW_S1_V1 Bool) )(forall ((MW_S1_V3 Bool) )(forall ((MW_S1_V2 Bool) )(forall ((MW_S1_V5 Bool) )(forall ((MW_S1_V4 Bool) )(forall ((MW_S2_V1 Bool) )(forall ((MW_S2_V3 Bool) )(forall ((MW_S2_V2 Bool) )(forall ((MW_S2_V5 Bool) )(forall ((MW_S2_V4 Bool) )(forall ((S1_V1_!1026 Int) )(forall ((S1_V1_!1038 Int) )(forall ((S1_V1_!1043 Int) )(forall ((B1_!1025 Bool) )(forall ((B1_!1031 Bool) )(forall ((B1_!1037 Bool) )(forall ((S2_V5_!1035 Int) )(forall ((S1_V3_!1027 Int) )(forall ((S1_V3_!1039 Int) )(forall ((S1_V3_!1044 Int) )(forall ((S1_V2_!1028 Int) )(forall ((S1_V2_!1040 Int) )(forall ((S1_V2_!1045 Int) )(forall ((S2_V4_!1036 Int) )(forall ((S1_V5_!1029 Int) )(forall ((S1_V5_!1041 Int) )(forall ((S1_V5_!1046 Int) )(forall ((S2_V1_!1032 Int) )(forall ((S1_V4_!1030 Int) )(forall ((S1_V4_!1042 Int) )(forall ((S1_V4_!1047 Int) )(forall ((S2_V2_!1034 Int) )(forall ((S2_V3_!1033 Int) )(let ((?x1344 (ite MW_S1_V1 S1_V1_!1038 V1_0)))
 (let ((?x1894 (+ 1 ?x1344)))
 (let ((?x606 (ite MW_S1_V1 S1_V1_!1043 ?x1894)))
 (let ((?x977 (+ 1 (ite MW_S1_V1 S1_V1_!1026 V1_0))))
 (let ((?x1480 (ite MW_S2_V1 S2_V1_!1032 ?x977)))
 (let (($x5243 (and (= ?x1480 ?x606) (= (ite MW_S2_V3 S2_V3_!1033 (ite MW_S1_V3 S1_V3_!1027 V3_0)) (ite MW_S1_V3 S1_V3_!1044 V3_0)) (= (ite MW_S2_V2 S2_V2_!1034 (ite MW_S1_V2 S1_V2_!1028 V2_0)) (ite MW_S1_V2 S1_V2_!1045 V2_0)) (= (ite MW_S2_V5 S2_V5_!1035 (ite MW_S1_V5 S1_V5_!1029 V5_0)) (ite MW_S1_V5 S1_V5_!1046 V5_0)) (= (ite MW_S2_V4 S2_V4_!1036 (ite MW_S1_V4 S1_V4_!1030 V4_0)) (ite MW_S1_V4 S1_V4_!1047 V4_0)))))
 (let (($x217 (not B1_!1031)))
 (let (($x4236 (and (not (<= V2_0 V1_0)) B1_!1025 (not (<= (ite MW_S1_V2 S1_V2_!1028 V2_0) ?x977)) $x217 (>= ?x1480 (+ (- 1) (ite MW_S2_V2 S2_V2_!1034 (ite MW_S1_V2 S1_V2_!1028 V2_0)))) B1_!1037 (not (<= (ite MW_S1_V2 S1_V2_!1040 V2_0) ?x1894)) (>= ?x606 (+ (- 1) (ite MW_S1_V2 S1_V2_!1045 V2_0))))))
 (let (($x2576 (= S1_V4_!1047 S1_V4_!1042)))
 (let (($x5620 (and (or (not R_S1_V1) (= ?x1344 (+ (- 1) V1_0))) (or (not R_S1_V3) (= (ite MW_S1_V3 S1_V3_!1039 V3_0) V3_0)) (or (not R_S1_V2) (= (ite MW_S1_V2 S1_V2_!1040 V2_0) V2_0)) (or (not R_S1_V5) (= (ite MW_S1_V5 S1_V5_!1041 V5_0) V5_0)) (or (not R_S1_V4) (= (ite MW_S1_V4 S1_V4_!1042 V4_0) V4_0)))))
 (let (($x5058 (not $x5620)))
 (let (($x2838 (and (or (not R_S1_V1) (= V1_0 ?x1894)) (or (not R_S1_V3) (= V3_0 (ite MW_S1_V3 S1_V3_!1039 V3_0))) (or (not R_S1_V2) (= V2_0 (ite MW_S1_V2 S1_V2_!1040 V2_0))) (or (not R_S1_V5) (= V5_0 (ite MW_S1_V5 S1_V5_!1041 V5_0))) (or (not R_S1_V4) (= V4_0 (ite MW_S1_V4 S1_V4_!1042 V4_0))))))
 (let (($x3901 (not $x2838)))
 (let (($x3098 (and (or (not R_B1_V3) (= V3_0 (ite MW_S1_V3 S1_V3_!1027 V3_0))) (or (not R_B1_V2) (= V2_0 (ite MW_S1_V2 S1_V2_!1028 V2_0))) (or (not R_B1_V5) (= V5_0 (ite MW_S1_V5 S1_V5_!1029 V5_0))))))
 (let (($x529 (not $x3098)))
 (let (($x5060 (and (= S1_V1_!1026 S1_V1_!1038) (or $x5058 (= S1_V1_!1043 S1_V1_!1026)) (or $x5058 (= S1_V1_!1043 S1_V1_!1038)) (or $x529 (= B1_!1025 B1_!1031)) (= B1_!1037 B1_!1025) (or $x529 (= B1_!1037 B1_!1031)) (= S1_V3_!1027 S1_V3_!1039) (or $x5058 (= S1_V3_!1044 S1_V3_!1027)) (or $x5058 (= S1_V3_!1044 S1_V3_!1039)) (= S1_V2_!1028 S1_V2_!1040) (or $x5058 (= S1_V2_!1045 S1_V2_!1028)) (or $x5058 (= S1_V2_!1045 S1_V2_!1040)) (or $x3901 (= S1_V5_!1029 S1_V5_!1046)) (= S1_V5_!1041 S1_V5_!1029) (or $x3901 (= S1_V5_!1041 S1_V5_!1046)) (= S1_V4_!1030 S1_V4_!1042) (or $x5058 (= S1_V4_!1047 S1_V4_!1030)) (or $x5058 $x2576) (or (not MW_S1_V1) W_S1_V1) (or (not MW_S1_V2) W_S1_V2) (or (not MW_S1_V5) W_S1_V5) (or (not MW_S1_V4) W_S1_V4) (or (not MW_S2_V1) W_S2_V1) (or (not MW_S2_V3) W_S2_V3) (or (not MW_S2_V2) W_S2_V2) (or (not MW_S2_V5) W_S2_V5))))
 (or (not $x5060) (not $x4236) $x5243))))))))))))))))))
 )
 )
 )
 )
 )
 )
 )
 )
 )
 )
 )
 )
 )
 )
 )
 )
 )
 )
 )
 )
 )
 )
 )
 )
 )
 )
 )
 )
 )
 )
 )
 )
 )
 )
 )
 )
 )
 ))
 (let (($x5973 (not (and W_S2_V3 R_B1_V3))))
 (let (($x2932 (and W_S2_V5 R_S2_V5)))
 (let (($x1945 (and W_S2_V2 R_S2_V2)))
 (let (($x2749 (and W_S2_V3 R_S2_V3)))
 (let (($x1954 (and W_S2_V1 R_S2_V1)))
 (let (($x5201 (= DISJ_W_S2_R_S2 (not (or $x1954 $x2749 $x1945 $x2932 R_S2_V4)))))
 (let (($x1970 (and W_S2_V5 R_S1_V5)))
 (let (($x2476 (and W_S2_V2 R_S1_V2)))
 (let (($x999 (and W_S2_V3 R_S1_V3)))
 (let (($x4645 (and W_S2_V1 R_S1_V1)))
 (let (($x5594 (= DISJ_W_S2_R_S1 (not (or $x4645 $x999 $x2476 $x1970 R_S1_V4)))))
 (let (($x2895 (and W_S1_V5 W_S2_V5)))
 (let (($x3214 (and W_S1_V2 W_S2_V2)))
 (let (($x4233 (and W_S1_V1 W_S2_V1)))
 (let (($x3306 (= DISJ_W_S1_W_S2 (not (or $x4233 W_S2_V3 $x3214 $x2895 W_S1_V4)))))
 (let (($x2082 (or R_B1_V3 (and W_S1_V2 R_B1_V2) (and W_S1_V5 R_B1_V5))))
 (let (($x1294 (= DISJ_W_S1_R_B1 (not $x2082))))
 (let (($x6027 (and W_S1_V4 R_S2_V4)))
 (let (($x4290 (and W_S1_V5 R_S2_V5)))
 (let (($x2078 (and W_S1_V2 R_S2_V2)))
 (let (($x3380 (and W_S1_V1 R_S2_V1)))
 (let (($x2725 (= DISJ_W_S1_R_S2 (not (or $x3380 R_S2_V3 $x2078 $x4290 $x6027)))))
 (let (($x1716 (and W_S1_V4 R_S1_V4)))
 (let (($x1202 (and W_S1_V5 R_S1_V5)))
 (let (($x612 (and W_S1_V2 R_S1_V2)))
 (let (($x4072 (and W_S1_V1 R_S1_V1)))
 (let (($x4579 (= DISJ_W_S1_R_S1 (not (or $x4072 R_S1_V3 $x612 $x1202 $x1716)))))
 (let (($x2783 (not R_B1_V1)))
 (and DISJ_W_S2_R_B1 $x2783 W_S1_V3 W_S2_V4 $x4579 $x2725 $x1294 $x3306 $x5594 $x5201 $x5973 $x2039 $x4166 $x1966 $x5098))))))))))))))))))))))))))))))))))
(check-sat)
